NAME : XML100_2343_13
DIMENSION : 101
NB_CLUSTERS : 4
CLUSTERING_ALG : KMeans
CLUSTERING_PARAMS : k(3)
CLUSTERS
1 0
2 3 4 5 8 9 12 14 15 18 19 23 24 25 26 32 34 37 40 41 44 47 48 49 50 55 67 69 72 74 75 78 79 84 85 88 92 93 95 96 98 100
3 1 6 7 10 11 17 20 28 35 38 42 43 46 51 52 54 56 57 58 59 61 63 66 68 70 71 73 76 80 83 86 87 90 94 97 99
4 2 13 16 21 22 27 29 30 31 33 36 39 45 53 60 62 64 65 77 81 82 89 91
EOF